c This is QMaxSAT 2017 based on 14.07
c This is Glucose 3.0
c This is MiniSat 2.2.0
c WARNING: for repeatability, setting FPU to use double precision
c card = mrwto, comp = 0, pmodel = 0, narr = 20, mct = 99, verb = 0
cr firstCPXsol 0 0 0
c top = 824631
c |  Number of variables:    27848                                            |
c |  Number of clauses:      2907847                                          |
c |  Weight of hard clauses: 824631                                           |
c |  Number of soft clauses: 268520                                           |
c |  Number of unit soft clauses: 0                                           |
c |  Maximum Cardinality (by unit): 25510760     (0           )               |
c last restart ## conflicts  :  0 1566 
o 527 | cpuTime 0.311915 s
c Sum of weights = 1275538
c A number of soft clauses remained = 13426
c MRWTO encoding for Pseudo-Boolean Constraints
c sizeMax=527
c No.0 Divisor=9	generated by pow1
c No.1 Divisor=9	generated by pow1
c No.2 Divisor=9	generated by pow1
c p0= 9	p1= 9	p2= 9	
c number of digits = 4
c linkingVar[0].size = 9, linkingVar[1].size = 9, linkingVar[2].size = 7, linkingVar[3].size = 1, 
c Pseudo-Boolean Constraints: 240390 variables and 1735444 clauses
c Sum of weights = 1275538
c A number of soft clauses remained = 13426
c MRWTO encoding for Pseudo-Boolean Constraints
c sizeMax=527
c No.0 Divisor=9	generated by pow1
c No.1 Divisor=9	generated by pow1
c No.2 Divisor=9	generated by pow1
c p0= 9	p1= 9	p2= 9	
c number of digits = 4
c linkingVar[0].size = 9, linkingVar[1].size = 9, linkingVar[2].size = 7, linkingVar[3].size = 1, 
c Pseudo-Boolean Constraints: 240390 variables and 1735444 clauses
c Sum of weights = 1275538
c A number of soft clauses remained = 13426
c MRWTO encoding for Pseudo-Boolean Constraints
c sizeMax=527
c No.0 Divisor=9	generated by pow1
c No.1 Divisor=9	generated by pow1
c No.2 Divisor=9	generated by pow1
c p0= 9	p1= 9	p2= 9	
c number of digits = 4
c linkingVar[0].size = 9, linkingVar[1].size = 9, linkingVar[2].size = 7, linkingVar[3].size = 1, 
c Pseudo-Boolean Constraints: 240390 variables and 1735444 clauses
c Sum of weights = 1275538
c A number of soft clauses remained = 13426
c MRWTO encoding for Pseudo-Boolean Constraints
c sizeMax=527
c No.0 Divisor=9	generated by pow1
c No.1 Divisor=9	generated by pow1
c No.2 Divisor=9	generated by pow1
c p0= 9	p1= 9	p2= 9	
c number of digits = 4
c linkingVar[0].size = 9, linkingVar[1].size = 9, linkingVar[2].size = 7, linkingVar[3].size = 1, 
c Pseudo-Boolean Constraints: 240390 variables and 1735444 clauses
c Sum of weights = 1275538
c A number of soft clauses remained = 13426
c MRWTO encoding for Pseudo-Boolean Constraints
c sizeMax=527
c No.0 Divisor=9	generated by pow1
c No.1 Divisor=9	generated by pow1
c No.2 Divisor=9	generated by pow1
c p0= 9	p1= 9	p2= 9	
c number of digits = 4
c linkingVar[0].size = 9, linkingVar[1].size = 9, linkingVar[2].size = 7, linkingVar[3].size = 1, 
c Pseudo-Boolean Constraints: 240390 variables and 1735444 clauses
c Sum of weights = 1275538
c A number of soft clauses remained = 13426
c MRWTO encoding for Pseudo-Boolean Constraints
c sizeMax=527
c No.0 Divisor=9	generated by pow1
c No.1 Divisor=9	generated by pow1
c No.2 Divisor=9	generated by pow1
c p0= 9	p1= 9	p2= 9	
c number of digits = 4
c linkingVar[0].size = 9, linkingVar[1].size = 9, linkingVar[2].size = 7, linkingVar[3].size = 1, 
c Pseudo-Boolean Constraints: 240390 variables and 1735444 clauses
c Sum of weights = 1275538
c A number of soft clauses remained = 13426
c MRWTO encoding for Pseudo-Boolean Constraints
c sizeMax=527
c No.0 Divisor=9	generated by pow1
c No.1 Divisor=9	generated by pow1
c No.2 Divisor=9	generated by pow1
c p0= 9	p1= 9	p2= 9	
c number of digits = 4
c linkingVar[0].size = 9, linkingVar[1].size = 9, linkingVar[2].size = 7, linkingVar[3].size = 1, 
c Pseudo-Boolean Constraints: 240390 variables and 1735444 clauses
c Sum of weights = 1275538
c A number of soft clauses remained = 13426
c MRWTO encoding for Pseudo-Boolean Constraints
c sizeMax=527
c No.0 Divisor=9	generated by pow1
c No.1 Divisor=9	generated by pow1
c No.2 Divisor=9	generated by pow1
c p0= 9	p1= 9	p2= 9	
c number of digits = 4
c linkingVar[0].size = 9, linkingVar[1].size = 9, linkingVar[2].size = 7, linkingVar[3].size = 1, 
c Pseudo-Boolean Constraints: 240390 variables and 1735444 clauses
c Sum of weights = 1275538
c A number of soft clauses remained = 13426
c MRWTO encoding for Pseudo-Boolean Constraints
c sizeMax=527
c No.0 Divisor=9	generated by pow1
c No.1 Divisor=9	generated by pow1
c No.2 Divisor=9	generated by pow1
c p0= 9	p1= 9	p2= 9	
c number of digits = 4
c linkingVar[0].size = 9, linkingVar[1].size = 9, linkingVar[2].size = 7, linkingVar[3].size = 1, 
c Pseudo-Boolean Constraints: 240390 variables and 1735444 clauses
c Sum of weights = 1275538
c A number of soft clauses remained = 13426
c MRWTO encoding for Pseudo-Boolean Constraints
c sizeMax=527
c No.0 Divisor=9	generated by pow1
c No.1 Divisor=9	generated by pow1
c No.2 Divisor=9	generated by pow1
c p0= 9	p1= 9	p2= 9	
c number of digits = 4
c linkingVar[0].size = 9, linkingVar[1].size = 9, linkingVar[2].size = 7, linkingVar[3].size = 1, 
c Pseudo-Boolean Constraints: 240390 variables and 1735444 clauses
c Sum of weights = 1275538
c A number of soft clauses remained = 13426
c MRWTO encoding for Pseudo-Boolean Constraints
c sizeMax=527
c No.0 Divisor=9	generated by pow1
c No.1 Divisor=9	generated by pow1
c No.2 Divisor=9	generated by pow1
c p0= 9	p1= 9	p2= 9	
c number of digits = 4
c linkingVar[0].size = 9, linkingVar[1].size = 9, linkingVar[2].size = 7, linkingVar[3].size = 1, 
c Pseudo-Boolean Constraints: 240390 variables and 1735444 clauses
c Sum of weights = 1275538
c A number of soft clauses remained = 13426
c MRWTO encoding for Pseudo-Boolean Constraints
c sizeMax=527
c No.0 Divisor=9	generated by pow1
c No.1 Divisor=9	generated by pow1
c No.2 Divisor=9	generated by pow1
c p0= 9	p1= 9	p2= 9	
c number of digits = 4
c linkingVar[0].size = 9, linkingVar[1].size = 9, linkingVar[2].size = 7, linkingVar[3].size = 1, 
c Pseudo-Boolean Constraints: 240390 variables and 1735444 clauses
c Sum of weights = 1275538
c A number of soft clauses remained = 13426
c MRWTO encoding for Pseudo-Boolean Constraints
c sizeMax=527
c No.0 Divisor=9	generated by pow1
c No.1 Divisor=9	generated by pow1
c No.2 Divisor=9	generated by pow1
c p0= 9	p1= 9	p2= 9	
c number of digits = 4
c linkingVar[0].size = 9, linkingVar[1].size = 9, linkingVar[2].size = 7, linkingVar[3].size = 1, 
c Pseudo-Boolean Constraints: 240390 variables and 1735444 clauses
c Sum of weights = 1275538
c A number of soft clauses remained = 13426
c MRWTO encoding for Pseudo-Boolean Constraints
c sizeMax=527
c No.0 Divisor=9	generated by pow1
c No.1 Divisor=9	generated by pow1
c No.2 Divisor=9	generated by pow1
c p0= 9	p1= 9	p2= 9	
c number of digits = 4
c linkingVar[0].size = 9, linkingVar[1].size = 9, linkingVar[2].size = 7, linkingVar[3].size = 1, 
c Pseudo-Boolean Constraints: 240390 variables and 1735444 clauses
c Sum of weights = 1275538
c A number of soft clauses remained = 13426
c MRWTO encoding for Pseudo-Boolean Constraints
c sizeMax=527
c No.0 Divisor=9	generated by pow1
c No.1 Divisor=9	generated by pow1
c No.2 Divisor=9	generated by pow1
c p0= 9	p1= 9	p2= 9	
c number of digits = 4
c linkingVar[0].size = 9, linkingVar[1].size = 9, linkingVar[2].size = 7, linkingVar[3].size = 1, 
c Pseudo-Boolean Constraints: 240390 variables and 1735444 clauses
c Sum of weights = 1275538
c A number of soft clauses remained = 13426
c MRWTO encoding for Pseudo-Boolean Constraints
c sizeMax=527
c No.0 Divisor=9	generated by pow1
c No.1 Divisor=9	generated by pow1
c No.2 Divisor=9	generated by pow1
c p0= 9	p1= 9	p2= 9	
c number of digits = 4
c linkingVar[0].size = 9, linkingVar[1].size = 9, linkingVar[2].size = 7, linkingVar[3].size = 1, 
c Pseudo-Boolean Constraints: 240390 variables and 1735444 clauses
c Sum of weights = 1275538
c A number of soft clauses remained = 13426
c MRWTO encoding for Pseudo-Boolean Constraints
c sizeMax=527
c No.0 Divisor=9	generated by pow1
c No.1 Divisor=9	generated by pow1
c No.2 Divisor=9	generated by pow1
c p0= 9	p1= 9	p2= 9	
c number of digits = 4
c linkingVar[0].size = 9, linkingVar[1].size = 9, linkingVar[2].size = 7, linkingVar[3].size = 1, 
c Pseudo-Boolean Constraints: 240390 variables and 1735444 clauses
c Sum of weights = 1275538
c A number of soft clauses remained = 13426
c MRWTO encoding for Pseudo-Boolean Constraints
c sizeMax=527
c No.0 Divisor=9	generated by pow1
c No.1 Divisor=9	generated by pow1
c No.2 Divisor=9	generated by pow1
c p0= 9	p1= 9	p2= 9	
c number of digits = 4
c linkingVar[0].size = 9, linkingVar[1].size = 9, linkingVar[2].size = 7, linkingVar[3].size = 1, 
c Pseudo-Boolean Constraints: 240390 variables and 1735444 clauses
c Sum of weights = 1275538
c A number of soft clauses remained = 13426
c MRWTO encoding for Pseudo-Boolean Constraints
c sizeMax=527
c No.0 Divisor=9	generated by pow1
c No.1 Divisor=9	generated by pow1
c No.2 Divisor=9	generated by pow1
c p0= 9	p1= 9	p2= 9	
c number of digits = 4
c linkingVar[0].size = 9, linkingVar[1].size = 9, linkingVar[2].size = 7, linkingVar[3].size = 1, 
c Pseudo-Boolean Constraints: 240390 variables and 1735444 clauses
c Sum of weights = 1275538
c A number of soft clauses remained = 13426
c MRWTO encoding for Pseudo-Boolean Constraints
c sizeMax=527
c No.0 Divisor=9	generated by pow1
c No.1 Divisor=9	generated by pow1
c No.2 Divisor=9	generated by pow1
c p0= 9	p1= 9	p2= 9	
c number of digits = 4
c linkingVar[0].size = 9, linkingVar[1].size = 9, linkingVar[2].size = 7, linkingVar[3].size = 1, 
c Pseudo-Boolean Constraints: 240390 variables and 1735444 clauses
s UNKNOWN
c Search is stopped by a limit (maybe time-limit)
cr positiVarArr: [ | 21(1->2) | 140(1->3) | 259(1->4) | 378(1->5) | 497(1->6) | 616(1->7) | 735(1->8) | 854(1->9) | 973(1->10) | 1092(1->11) | 1211(1->12) | 1330(1->13) | 1449(1->14) | 1568(1->15) | 1687(1->16) | 1806(1->17) | 1925(1->18) | 2044(1->19) | 2163(1->20) | 2282(1->21) | 2401(2->22) | 2520(3->23) | 2639(4->24) | 2758(5->25) | 2877(6->26) | 2996(7->27) | 3115(8->28) | 3234(9->29) | 3353(10->30) | 3472(11->31) | 3591(12->32) | 3710(13->33) | 3829(14->34) | 3948(15->35) | 4067(16->36) | 4186(17->37) | 4305(18->38) | 4424(19->39) | 4543(20->40) | 4662(21->41) | 4781(22->42) | 4900(23->43) | 5019(24->44) | 5138(25->45) | 5257(26->46) | 5376(27->47) | 5495(28->48) | 5614(29->49) | 5733(30->50) | 5852(31->51) | 5971(32->52) | 6090(33->53) | 6209(34->54) | 6328(35->55) | 6447(36->56) | 6566(37->57) | 6685(38->58) | 6804(39->59) | 6923(40->60) | 7042(41->61) | 7161(42->62) | 7280(43->63) | 7399(44->64) | 7518(45->65) | 7637(46->66) | 7756(47->67) | 7875(48->68) | 7994(49->69) | 8113(50->70) | 8232(51->71) | 8351(52->72) | 8470(53->73) | 8589(54->74) | 8708(55->75) | 8827(56->76) | 8946(57->77) | 9065(58->78) | 9184(59->79) | 9303(60->80) | 9422(61->81) | 9541(62->82) | 9660(63->83) | 9779(64->84) | 9898(65->85) | 10017(66->86) | 10136(67->87) | 10255(68->88) | 10374(69->89) | 10493(70->90) | 10612(71->91) | 10731(72->92) | 10850(73->93) | 10969(74->94) | 11088(75->95) | 11207(76->96) | 11326(77->97) | 11445(78->98) | 11564(79->99) | 11584(80->1) | 11701(81->1) | 11818(82->1) | 11935(83->1) | 12052(84->1) | 12169(85->1) | 12286(86->1) | 12403(87->1) | 12520(88->1) | 12637(89->1) | 12754(90->1) | 12871(91->1) | 12988(92->1) | 13105(93->1) | 13222(94->1) | 13339(95->1) | 13456(96->1) | 13573(97->1) | 13690(98->1) | 13807(99->1) | ]
cr the 1-th chain: [ 1->2->22->42->62->82->1 ] (#non-depot=5) {#cumul.=6}
cr the 2-th chain: [ 1->3->23->43->63->83->1 ] (#non-depot=5) {#cumul.=11}
cr the 3-th chain: [ 1->4->24->44->64->84->1 ] (#non-depot=5) {#cumul.=16}
cr the 4-th chain: [ 1->5->25->45->65->85->1 ] (#non-depot=5) {#cumul.=21}
cr the 5-th chain: [ 1->6->26->46->66->86->1 ] (#non-depot=5) {#cumul.=26}
cr the 6-th chain: [ 1->7->27->47->67->87->1 ] (#non-depot=5) {#cumul.=31}
cr the 7-th chain: [ 1->8->28->48->68->88->1 ] (#non-depot=5) {#cumul.=36}
cr the 8-th chain: [ 1->9->29->49->69->89->1 ] (#non-depot=5) {#cumul.=41}
cr the 9-th chain: [ 1->10->30->50->70->90->1 ] (#non-depot=5) {#cumul.=46}
cr the 10-th chain: [ 1->11->31->51->71->91->1 ] (#non-depot=5) {#cumul.=51}
cr the 11-th chain: [ 1->12->32->52->72->92->1 ] (#non-depot=5) {#cumul.=56}
cr the 12-th chain: [ 1->13->33->53->73->93->1 ] (#non-depot=5) {#cumul.=61}
cr the 13-th chain: [ 1->14->34->54->74->94->1 ] (#non-depot=5) {#cumul.=66}
cr the 14-th chain: [ 1->15->35->55->75->95->1 ] (#non-depot=5) {#cumul.=71}
cr the 15-th chain: [ 1->16->36->56->76->96->1 ] (#non-depot=5) {#cumul.=76}
cr the 16-th chain: [ 1->17->37->57->77->97->1 ] (#non-depot=5) {#cumul.=81}
cr the 17-th chain: [ 1->18->38->58->78->98->1 ] (#non-depot=5) {#cumul.=86}
cr the 18-th chain: [ 1->19->39->59->79->99->1 ] (#non-depot=5) {#cumul.=91}
cr the 19-th chain: [ 1->20->40->60->80->1 ] (#non-depot=4) {#cumul.=95}
cr the 20-th chain: [ 1->21->41->61->81->1 ] (#non-depot=4) {#cumul.=99}
c Latest Answer = 0 by 1 loops
c restarts              : 12293
c conflicts             : 1697074        (472 /sec)
c decisions             : 141424197      (0.00 % random) (39304 /sec)
c propagations          : 33093155072    (9197165 /sec)
c conflict literals     : 211323096      (31.24 % deleted)
c Memory used           : 4710.00 MB
c CPU time              : 3598.19 s
